r = [
0,32,42,13,34,75,37,48,63,77,34,0
];
p = [
0,22,25,29,26,10,1,12,16,13,27,0
];
e = [
0,17,5,13,8,1,10,12,14,15,16,0
];
d = [
0,97,132,141,147,136,112,112,147,140,161,175
];
d_bar = [
0,108,145,156,160,141,113,118,155,147,175,175
];
w = [
0,1.545454545,0.384615385,0.866666667,0.615384615,0.2,10,2,1.75,2.142857143,1.142857143,0
];
